31
0
28
41
54
63
50
70
36
60
71
61
0
75
29
76
99
18
57
46
0
59
14
50
87
37
17
33
44
35
83
32
18
59
68
25
79
0
0
53
60
63
30
34
44
108
93
25
14
0
52
42
0
88
55
61
43
0
46
0
42
14
68
32
71
14
25
73
11
24
52
56
0
45
33
79
77
38
12
47
0
23
46
57
0
17
51
0
30
42
15
39
87
23
115
59
66
0
17
40
